peakDumbCharging = 22200; 
Machine = anon_enum(16); 
machineSpeed = [3700,3700,3700,3700,3700,3700,3700,3700,3700,3700,3700,3700,3700,3700,3700,3700]; 
machineLoad = [3700,3700,3700,3700,3700,3700,3700,3700,3700,3700,3700,3700,3700,3700,3700,3700]; 
Car = anon_enum(28); 
demandCar = [2320,3080,4720,7120,5200,5960,5480,4640,16360,16281,9840,9920,14280,16800,30280,13720,9640,10880,4520,6200,30680,9320,32080,32320,960,840,8120,25960]; 
arrivalCar = [75,73,69,69,69,68,65,64,60,58,57,56,51,51,50,48,47,45,44,42,40,34,27,26,26,26,24,23]; 
departureCar = [77,76,72,73,72,71,71,68,66,67,66,63,57,58,59,57,55,73,46,46,60,43,44,41,28,27,28,61]; 
